3413
634
1437
421
385
3815
2952
4428
2886
3274
844
641
901
1077
598
3898
3304
3821
3601
3128
3172
4179
3789
2244
1072
3054
3394
1857
416
4205
1641
2059
224
2809
2522
1491
2497
1283
1971
2863
2085
3850
3265
846
3327
3646
4012
4223
4350
1829
2436
3161
4007
1141
2692
3205
1468
877
3366
3673
1060
3101
2926
1992
1623
3516
4214
374
3610
3085
1047
3263
843
853
270
364
3689
3878
2547
1008
3060
179
2164
474
3358
377
1318
3700
2069
233
446
423
2639
1297
1175
1956
3584
2366
180
3236
